SCIP Status        : solving was interrupted [time limit reached]
Total Time         :    3600.05
  solving          :    3600.01
  presolving       :       0.39 (included in solving)
  reading          :       0.04
  copying          :       1.59 (78 #copies) (minimal 0.00, maximal 0.06, average 0.02)
Original Problem   :
  Problem name     : bbbenchmark/g05_100.6.cut
  Variables        : 101 (100 binary, 0 integer, 0 implicit integer, 1 continuous)
  Constraints      : 1 initial, 1 maximal
  Objective        : minimize, 1 non-zeros (abs.min = 1, abs.max = 1)
Presolved Problem  :
  Problem name     : t_bbbenchmark/g05_100.6.cut
  Variables        : 1869 (100 binary, 0 integer, 1754 implicit integer, 15 continuous)
  Constraints      : 1797 initial, 8332 maximal
  Objective        : minimize, 1 non-zeros (abs.min = 1, abs.max = 1)
  Nonzeros         : 8643 constraint, 202 clique table
Presolvers         :   ExecTime  SetupTime  Calls  FixedVars   AggrVars   ChgTypes  ChgBounds   AddHoles    DelCons    AddCons   ChgSides   ChgCoefs
  boundshift       :       0.00       0.00      0          0          0          0          0          0          0          0          0          0
  convertinttobin  :       0.00       0.00      0          0          0          0          0          0          0          0          0          0
  domcol           :       0.00       0.00      1          0          0          0          0          0          0          0          0          0
  dualagg          :       0.00       0.00      0          0          0          0          0          0          0          0          0          0
  dualcomp         :       0.00       0.00      1          0          0          0          0          0          0          0          0          0
  dualinfer        :       0.00       0.00      0          0          0          0          0          0          0          0          0          0
  dualsparsify     :       0.00       0.00      1          0          0          0          0          0          0          0          0          0
  gateextraction   :       0.00       0.00      0          0          0          0          0          0          0          0          0          0
  implics          :       0.00       0.00      2          0          0          0          0          0          0          0          0          0
  inttobinary      :       0.00       0.00      0          0          0          0          0          0          0          0          0          0
  qpkktref         :       0.00       0.00      0          0          0          0          0          0          0          0          0          0
  redvub           :       0.00       0.00      0          0          0          0          0          0          0          0          0          0
  sparsify         :       0.00       0.00      1          0          0          0          0          0          0          0          0          0
  stuffing         :       0.00       0.00      0          0          0          0          0          0          0          0          0          0
  trivial          :       0.00       0.00      4          0          0          0          0          0          0          0          0          0
  tworowbnd        :       0.00       0.00      0          0          0          0          0          0          0          0          0          0
  dualfix          :       0.00       0.00      4          0          0          0          0          0          0          0          0          0
  genvbounds       :       0.00       0.00      0          0          0          0          0          0          0          0          0          0
  probing          :       0.32       0.00      1          0          0          0          0          0          0          0          0          0
  pseudoobj        :       0.00       0.00      1          0          0          0          1          0          0          0          0          0
  symmetry         :       0.00       0.00      0          0          0          0          0          0          0          0          0          0
  vbounds          :       0.00       0.00      1          0          0          0          0          0          0          0          0          0
  varbound         :       0.00       0.00      2          0          0          0          0          0          0          0          0          0
  and              :       0.00       0.00      2          0          0          0          0          0          0          0          0          0
  linear           :       0.00       0.00      2          0          0          0          0          0          0          0          0          0
  logicor          :       0.00       0.00      0          0          0          0          0          0          0          0          0          0
  bounddisjunction :       0.00       0.00      0          0          0          0          0          0          0          0          0          0
  nonlinear        :       0.07       0.01      5          0          0          0          1          0          0       1796          0          0
  benders          :       0.00       0.00      0          0          0          0          0          0          0          0          0          0
  components       :       0.00       0.00      1          0          0          0          0          0          0          0          0          0
  root node        :          -          -      -          0          -          -         13          -          -          -          -          -
Constraints        :     Number  MaxNumber  #Separate #Propagate    #EnfoLP    #EnfoRelax  #EnfoPS    #Check   #ResProp    Cutoffs    DomReds       Cuts    Applied      Conss   Children
  benderslp        :          0          0          0          0     142831          0          0      10316          0          0          0          0          0          0          0
  integral         :          0          0          0          0     142831          0          0      10316          0          0       2352          0          0       1619     284502
  varbound         :         14         14        164     815139          0          0          0        809          0          0      65639          0          0          0          0
  and              :       1754       1754     160050     860468          0          0          0        809     494454          8    2342621        299        295          0          0
  linear           :         29+        43        164     860521          0          0          0        807       1587         22     584749          0          0          0          0
  logicor          :          0+      6377          0     125987          0          0          0          0        316        426         75          0          0          0          0
  bounddisjunction :          0+       782          0      82299          0          0          0          0          5         21          0          0          0          0          0
  benders          :          0          0          0          0          0          0          0         21          0          0          0          0          0          0          0
  countsols        :          0          0          0          0          0          0          0         21          0          0          0          0          0          0          0
  components       :          0          0          0          0          0          0          0          0          0          0          0          0          0          0          0
Constraint Timings :  TotalTime  SetupTime   Separate  Propagate     EnfoLP     EnfoPS     EnfoRelax   Check    ResProp    SB-Prop
  benderslp        :       0.23       0.00       0.00       0.00       0.22       0.00       0.00       0.01       0.00       0.00
  integral         :      77.79       0.00       0.00       0.00      77.71       0.00       0.00       0.08       0.00       0.00
  varbound         :       0.96       0.00       0.00       0.95       0.00       0.00       0.00       0.01       0.00       0.00
  and              :     135.06       0.00      96.10      38.03       0.00       0.00       0.00       0.31       0.34       0.28
  linear           :       5.21       0.00       0.08       5.07       0.00       0.00       0.00       0.03       0.00       0.03
  logicor          :       8.27       0.00       0.00       8.25       0.00       0.00       0.00       0.00       0.00       0.02
  bounddisjunction :       1.93       0.00       0.00       1.93       0.00       0.00       0.00       0.00       0.00       0.00
  benders          :       0.00       0.00       0.00       0.00       0.00       0.00       0.00       0.00       0.00       0.00
  countsols        :       0.00       0.00       0.00       0.00       0.00       0.00       0.00       0.00       0.00       0.00
  components       :       0.19       0.00       0.00       0.19       0.00       0.00       0.00       0.00       0.00       0.00
Propagators        : #Propagate   #ResProp    Cutoffs    DomReds
  dualfix          :          4          0          0          0
  genvbounds       :          0          0          0          0
  nlobbt           :          0          0          0          0
  obbt             :          0          0          0          0
  probing          :          0          0          0          0
  pseudoobj        :     620603          0          0         39
  redcost          :     319695          0          0     227957
  rootredcost      :          9          0          0          0
  symmetry         :          0          0          0          0
  vbounds          :     132795          0          0          0
Propagator Timings :  TotalTime  SetupTime   Presolve  Propagate    ResProp    SB-Prop
  dualfix          :       0.00       0.00       0.00       0.00       0.00       0.00
  genvbounds       :       0.43       0.00       0.00       0.43       0.00       0.00
  nlobbt           :       0.00       0.00       0.00       0.00       0.00       0.00
  obbt             :       0.00       0.00       0.00       0.00       0.00       0.00
  probing          :       0.32       0.00       0.32       0.00       0.00       0.00
  pseudoobj        :       1.04       0.00       0.00       1.04       0.00       0.00
  redcost          :      20.11       0.00       0.00      20.11       0.00       0.00
  rootredcost      :       0.72       0.00       0.00       0.72       0.00       0.00
  symmetry         :       0.34       0.00       0.00       0.33       0.00       0.01
  vbounds          :       0.63       0.00       0.00       0.63       0.00       0.00
Conflict Analysis  :       Time      Calls    Success    DomReds  Conflicts   Literals    Reconvs ReconvLits   Dualrays   Nonzeros   LP Iters   (pool size: [10000,10000])
  propagation      :       0.00        458        307          -        455       79.7          0        0.0          -          -          -
  infeasible LP    :       0.10        101        101          -       4020      135.8          0        0.0        142      193.5          0
  bound exceed. LP :      20.54       6459       6085          -     142092      107.8          6       57.7          0        0.0      56210
  strong branching :       0.00          0          0          -          0        0.0          0        0.0          -          -          0
  pseudo solution  :       0.00          0          0          -          0        0.0          0        0.0          -          -          -
  applied globally :       0.57          -          -          0      33754      115.9          -          -        142          -          -
  applied locally  :          -          -          -          0          0        0.0          -          -          0          -          -
Separators         :   ExecTime  SetupTime      Calls  RootCalls    Cutoffs    DomReds  FoundCuts ViaPoolAdd  DirectAdd    Applied ViaPoolApp  DirectApp      Conss
  cut pool         :       6.64          -      27010        192          -          -      38206    1470733          -          -          -          -          -    (maximal pool size:       3823)
  aggregation      :     340.85       0.00       5140        164          0          0          8          8          0          6          6          0          0
  > cmir           :          -          -          -          -          -          -          -          8          0          6          6          0          -
  > flowcover      :          -          -          -          -          -          -          -          0          0          0          0          0          -
  > knapsackcover  :          -          -          -          -          -          -          -          0          0          0          0          0          -
  cgmip            :       0.00       0.00          0          0          0          0          0          0          0          0          0          0          0
  clique           :       0.00       0.00        164        164          0          0          0          0          0          0          0          0          0
  closecuts        :       0.00       0.00          0          0          0          0          0          0          0          0          0          0          0
  convexproj       :       0.00       0.00          0          0          0          0          0          0          0          0          0          0          0
  disjunctive      :       0.00       0.00          0          0          0          0          0          0          0          0          0          0          0
  eccuts           :       0.00       0.00          0          0          0          0          0          0          0          0          0          0          0
  gauge            :       0.00       0.00          0          0          0          0          0          0          0          0          0          0          0
  gomory           :       0.00       0.00          0          0          0          0          0          0          0          0          0          0          0
  > gomorymi       :          -          -          -          -          -          -          -          0          0          0          0          0          -
  > strongcg       :          -          -          -          -          -          -          -          0          0          0          0          0          -
  impliedbounds    :       0.34       0.00       5140        164          0          0          0          0          0          0          0          0          0
  interlattice     :       0.63       0.00         80         80          0          0         80          0         80         79          0         79          0
  interminor       :       0.00       0.00          0          0          0          0          0          0          0          0          0          0          0
  intersub         :       0.98       0.00         40         40          0          0         40          0         40         40          0         40          0
  intobj           :       0.00       0.00          0          0          0          0          0          0          0          0          0          0          0
  mcf              :       0.00       0.00          1          1          0          0          0          0          0          0          0          0          0
  minor            :       0.02       0.00          0          0          0          0          0          0          0          0          0          0          0
  mixing           :       0.02       0.00       5140        164          0          0          0          0          0          0          0          0          0
  oddcycle         :       0.00       0.00          0          0          0          0          0          0          0          0          0          0          0
  rapidlearning    :       0.00       0.00          0          0          0          0          0          0          0          0          0          0          0
  rlt              :       0.00       0.00         10         10          0          0          0          0          0          0          0          0          0
  zerohalf         :      40.31       0.00       4379         20          0          0      38198    1470725          0     125059     125059          0          0
Cutselectors       :   ExecTime  SetupTime      Calls  RootCalls   Selected     Forced   Filtered  RootSelec   RootForc   RootFilt 
  hybrid           :       1.45       0.00      11893        162     125479          0    1345673        330          0         13
Pricers            :   ExecTime  SetupTime      Calls       Vars
  problem variables:       0.00          -          0          0
Branching Rules    :   ExecTime  SetupTime   BranchLP  BranchExt   BranchPS    Cutoffs    DomReds       Cuts      Conss   Children
  allfullstrong    :       0.00       0.00          0          0          0          0          0          0          0          0
  cloud            :       0.00       0.00          0          0          0          0          0          0          0          0
  distribution     :       0.00       0.00          0          0          0          0          0          0          0          0
  fullstrong       :       0.00       0.00          0          0          0          0          0          0          0          0
  inference        :       0.00       0.00          0          0          0          0          0          0          0          0
  leastinf         :       0.00       0.00          0          0          0          0          0          0          0          0
  lookahead        :       0.00       0.00          0          0          0          0          0          0          0          0
  mostinf          :       0.00       0.00          0          0          0          0          0          0          0          0
  multaggr         :       0.00       0.00          0          0          0          0          0          0          0          0
  nodereopt        :       0.00       0.00          0          0          0          0          0          0          0          0
  pscost           :       0.00       0.00          0          0          0          0          0          0          0          0
  random           :       0.00       0.00          0          0          0          0          0          0          0          0
  relpscost        :      77.28       0.00     142831          0          0          0       2352          0       1619     284502
  vanillafullstrong:       0.00       0.00          0          0          0          0          0          0          0          0
Primal Heuristics  :   ExecTime  SetupTime      Calls      Found       Best
  LP solutions     :       0.00          -          -          0          0
  relax solutions  :       0.00          -          -          0          0
  pseudo solutions :       0.00          -          -          0          0
  strong branching :       0.01          -          -          0          0
  actconsdiving    :       0.00       0.00          0          0          0
  adaptivediving   :       4.21       0.00         29          0          0
  alns             :       2.55       0.00         31          5          5
  bound            :       0.00       0.00          0          0          0
  clique           :       0.01       0.00          1          0          0
  coefdiving       :       0.00       0.00          0          0          0
  completesol      :       0.00       0.00          0          0          0
  conflictdiving   :     150.37       0.00       1175          0          0
  crossover        :       3.83       0.00          8          0          0
  dins             :       0.00       0.00          0          0          0
  distributiondivin:      71.54       0.00        317          0          0
  dps              :       0.00       0.00          0          0          0
  dualval          :       0.00       0.00          0          0          0
  farkasdiving     :       0.02       0.00          0          0          0
  feaspump         :       1.01       0.00          1          1          1
  fixandinfer      :       0.00       0.00          0          0          0
  fracdiving       :      52.03       0.00        444          0          0
  gins             :       0.20       0.00          0          0          0
  guideddiving     :      53.35       0.00        414          2          2
  indicator        :       0.17       0.00          0          0          0
  indicatordiving  :       0.00       0.00          0          0          0
  intdiving        :       0.00       0.00          0          0          0
  intshifting      :       0.52       0.00         51          0          0
  linesearchdiving :      50.69       0.00        415          0          0
  localbranching   :       0.00       0.00          0          0          0
  locks            :       0.01       0.00          1          0          0
  lpface           :       0.16       0.00          0          0          0
  mpec             :     103.47       0.00         11          0          0
  multistart       :       0.00       0.00          0          0          0
  mutation         :       0.00       0.00          0          0          0
  nlpdiving        :       8.00       0.00         10          0          0
  objpscostdiving  :      32.65       0.00         35          2          0
  octane           :       0.00       0.00          0          0          0
  ofins            :       0.15       0.00          0          0          0
  oneopt           :       0.19       0.00         13          0          0
  padm             :       0.00       0.00          0          0          0
  proximity        :       0.00       0.00          0          0          0
  pscostdiving     :      50.48       0.00        355          1          1
  randrounding     :       1.60       0.00      10291          0          0
  rens             :       0.00       0.00          0          0          0
  reoptsols        :       0.00       0.00          0          0          0
  repair           :       0.00       0.00          0          0          0
  rins             :       5.29       0.00         40          2          2
  rootsoldiving    :      27.17       0.00         31          0          0
  rounding         :       1.99       0.00       5389          0          0
  shiftandpropagate:       0.00       0.00          0          0          0
  shifting         :      37.73       0.00       8397          2          2
  simplerounding   :       0.11       0.00          0          0          0
  subnlp           :     226.22       0.00          0          0          0
  trivial          :       0.00       0.00          2          2          2
  trivialnegation  :       0.00       0.00          0          0          0
  trustregion      :       0.00       0.00          0          0          0
  trysol           :       0.30       0.00          0          0          0
  twoopt           :       0.00       0.00          0          0          0
  undercover       :       2.03       0.00          1          1          1
  vbounds          :       0.00       0.00          0          0          0
  veclendiving     :      52.25       0.00        429          0          0
  zeroobj          :       0.00       0.00          0          0          0
  zirounding       :       0.45       0.00       1000          0          0
  other solutions  :          -          -          -          0          -
Diving (single)    :      Calls      Nodes   LP Iters Backtracks  Conflicts   MinDepth   MaxDepth   AvgDepth  RoundSols  NLeafSols  MinSolDpt  MaxSolDpt  AvgSolDpt
  actconsdiving    :          0          -          -          -          -          -          -          -          -          -          -          -          -
  coefdiving       :          0          -          -          -          -          -          -          -          -          -          -          -          -
  conflictdiving   :       1175      50908    1450553       1130      68749         55         84       65.0          0          -          -          -          -
  distributiondivin:        317      12136     494888        358       5727         50         68       59.4          0          -          -          -          -
  farkasdiving     :          0          -          -          -          -          -          -          -          -          -          -          -          -
  fracdiving       :        444      42871     490306        144       2180         62        274      118.3          0          -          -          -          -
  guideddiving     :        414      37730     514183        176       5151         61        268      112.4          0          2        103        110      106.5
  indicatordiving  :          0          -          -          -          -          -          -          -          -          -          -          -          -
  linesearchdiving :        415      17345     491420        346      22814         47         90       63.2          0          -          -          -          -
  pscostdiving     :        355      15549     506739        372       8131         57         75       64.8          0          1         66         66       66.0
  veclendiving     :        429      18373     491323        347      28336         55         92       63.8          0          -          -          -          -
Diving (adaptive)  :      Calls      Nodes   LP Iters Backtracks  Conflicts   MinDepth   MaxDepth   AvgDepth  RoundSols  NLeafSols  MinSolDpt  MaxSolDpt  AvgSolDpt
  actconsdiving    :          2         89       3332          2         25         58         62       60.0          0          -          -          -          -
  coefdiving       :         13        561      13807          7        735         58         88       66.4          0          -          -          -          -
  conflictdiving   :          0          -          -          -          -          -          -          -          -          -          -          -          -
  distributiondivin:          0          -          -          -          -          -          -          -          -          -          -          -          -
  farkasdiving     :          0          -          -          -          -          -          -          -          -          -          -          -          -
  fracdiving       :          1         59        782          0          0         85         85       85.0          0          -          -          -          -
  guideddiving     :          3        316       4176          1         51         92        180      123.7          0          -          -          -          -
  indicatordiving  :          0          -          -          -          -          -          -          -          -          -          -          -          -
  linesearchdiving :          3        107       4025          3        136         52         57       54.3          0          -          -          -          -
  pscostdiving     :          1         43       1694          1         36         63         63       63.0          0          -          -          -          -
  veclendiving     :          6        298       7040          4        372         57         76       66.2          0          -          -          -          -
Neighborhoods      :      Calls  SetupTime  SolveTime SolveNodes       Sols       Best       Exp3  EpsGreedy        UCB TgtFixRate  Opt  Inf Node Stal  Sol  Usr Othr Actv
  rens             :          2       0.01       0.00          0          0          0    0.00000   -1.00000    0.30266      0.700    0    1    0    0    0    0    1    1
  rins             :          1       0.00       0.00          0          0          0    0.00000   -1.00000    0.07447      0.900    0    0    0    0    0    0    1    1
  mutation         :          5       0.14       0.45        329          1          1    0.00000   -1.00000    0.49423      0.735    0    2    0    3    0    0    0    1
  localbranching   :          8       0.31       0.32        446          3          3    0.00000   -1.00000    0.51058      0.891    0    2    0    5    1    0    0    1
  crossover        :          4       0.11       0.21         85          0          0    0.00000   -1.00000    0.46068      0.522    0    3    0    1    0    0    0    1
  proximity        :          7       0.24       0.35        380          1          1    0.00000   -1.00000    0.52009      0.864    1    2    0    4    0    0    0    1
  zeroobjective    :          2       0.06       0.05        106          0          0    0.00000   -1.00000    0.45806      0.850    0    1    0    1    0    0    0    1
  dins             :          2       0.09       0.05         83          0          0    0.00000   -1.00000    0.51915      0.750    0    1    0    1    0    0    0    1
  trustregion      :          0       0.00       0.00          0          0          0    0.00000   -1.00000    1.00000      0.900    0    0    0    0    0    0    0    0
Expressions        :   #IntEval  IntEvalTi   #RevProp  RevPropTi    DomReds    Cutoffs  #Estimate  EstimTime  Branching  #Simplify SimplifyTi Simplified
  pow              :          0       0.00          0       0.00          0          0          0       0.00          0          0       0.00          0
  prod             :       9900       0.00          0       0.00          0          0          0       0.00          0       6704       0.01          0
  sum              :          8       0.01          2       0.00          0          0          0       0.00          0          3       0.00          2
  var              :       6416       0.00          0       0.00          0          0          0       0.00          0      15479       0.00          0
  varidx           :          0       0.00          0       0.00          0          0          0       0.00          0          0       0.00          0
LP                 :       Time      Calls Iterations  Iter/call   Iter/sec  Time-0-It Calls-0-It    ItLimit
  primal LP        :     144.22      17093          0       0.00       0.00     144.16      17093
  dual LP          :    1634.37     252797    9570910      41.50    5856.02       9.83      22167
  lex dual LP      :       0.00          0          0       0.00          -
  barrier LP       :       0.00          0          0       0.00          -       0.00          0
  resolve instable :       0.00          0          0       0.00          -
  diving/probing LP:     460.08      15739    4804708     305.27   10443.20
  strong branching :      29.18       1819     176625      97.10    6052.95          -          -        286
    (at root node) :          -         20       9558     477.90          -
  conflict analysis:       8.81       5797      56210       9.70    6380.25
NLP relaxation     :
  solve time       :       7.98 (10 calls)
  convexity        :  nonconvex (43 linear rows, 0 convex ineq., 0 nonconvex ineq., 1754 nonlinear eq. or two-sided ineq.)
NLP Solvers        :  #Problems  ProblemTi    #Solves  SolveTime      #Iter  Time/Iter      #Okay #TimeLimit #IterLimit #LObjLimit #Interrupt  #NumError #EvalError  #OutOfMem #LicenseEr #OtherTerm   #GlobOpt    #LocOpt  #Feasible #LocInfeas #GlobInfea #Unbounded   #Unknown
  ipopt            :         12       9.28         38     113.68       1753       0.06         38          0          0          0          0          0          0          0          0          0          0         13          0         15          0          0         10
B&B Tree           :
  number of runs   :          1
  nodes            :     218203 (142251 internal, 75952 leaves)
  feasible leaves  :          0
  infeas. leaves   :         30
  objective leaves :      75921
  nodes (total)    :     218203 (142251 internal, 75952 leaves)
  nodes left       :      65701
  max depth        :         78
  max depth (total):         78
  backtracks       :      44384 (20.3%)
  early backtracks :          0 (0.0%)
  nodes exc. ref.  :          0 (0.0%)
  delayed cutoffs  :          5
  repropagations   :        996 (504 domain reductions, 0 cutoffs)
  avg switch length:       6.21
  switching time   :     196.14
Estim. Tree Size   :     437604
Estimation Tree    : 284503 nodes (218802 visited, 142251 internal, 76551 leaves, 65701 open), weight: 0.0000 completed 0.0729
Estimations        :      estim      value      trend resolution     smooth
  wbe              : 44897494188815744          -          -          -          -
  tree-profile     :         -1          -          -          -          -
  gap              :    9893035    0.67752    0.00001        128    9961608
  tree-weight      :     437604    0.00000    0.00000        128     390294
  leaf-frequency   :    2830460    0.34986    0.00001        128    2155730
  ssg              :   30411707    0.88489   -0.00001        128   30555995
  open-nodes       :     437604 65701.00000   34.83516        128     390294
Root Node          :
  First LP value   : -1.00000000000000e+00
  First LP Iters   :       1597 (10646.67 Iter/sec)
  First LP Time    :       0.15
  Final Dual Bound : -9.38776630311871e-01
  Final Root Iters :       7428
  Root LP Estimate : -3.68569025538973e-01
Solution           :
  Solutions found  :         18 (16 improvements)
  First Solution   : +1.00000000000000e+05   (in run 1, after 0 nodes, 0.01 seconds, depth 0, found by <trivial>)
  Gap First Sol.   :   infinite
  Gap Last Sol.    :      49.07 %
  Primal Bound     : -5.66060606060604e-01   (in run 1, after 102347 nodes, 1996.04 seconds, depth 110, found by <guideddiving>)
  Dual Bound       : -8.35493036079816e-01
  Gap              :      47.60 %
Integrals          :      Total       Avg%
  primal-dual      :  124847.57      34.68
  primal-ref       :          -          - (not evaluated)
  dual-ref         :          -          - (not evaluated)
